\ LP format - for model browsing. Use MPS format to capture full model detail.
Maximize
obj:   x[5] + x[1] + x[6] + x[2] + x[8] + x[4] + x[9] + x[11] + x[13] + x[14]
   + x[7] + x[15] + x[16] + x[10] + x[12] + x[17] + x[18] + x[19] + x[21]
   + x[22] + x[23] + x[24] + x[25] + x[3] + x[27] + x[28] + x[29] + x[30]
   + x[31] + x[32] + x[33] + x[34] + x[35] + x[36] + x[20] + x[37] + x[38]
   + x[39] + x[26] + x[40] + x[41] + x[42] + x[43] + x[44] + x[45] + x[46]
   + x[47] + x[48] + x[49] + x[50] + x[51] + x[52] + x[53] + x[54] + x[55]
   + x[56] + x[57] + x[58] + x[59] + x[60] + x[61] + x[62] + x[63] + x[64]
   + x[65] + x[66] + x[67] + x[68] + x[69] + x[70] + x[71] + x[72] + x[73]
   + x[74] + x[75] + x[76] + x[77] + x[78] + x[79] + x[80] + x[81] + x[82]
   + x[83] + x[84] + x[85] + x[86] + x[87] + x[88] + x[89] + x[90] + x[91]
   + x[92] + x[93] + x[94] + x[95] + x[96] + x[97] + x[98] + x[99] + x[100]
   + x[101] + x[102] + x[103] + x[104] + x[105] + x[106] + x[107] + x[108]
   + x[109] + x[110] + x[111] + x[112] + x[113] + x[114] + x[115] + x[116]
   + x[117] + x[118] + x[119] + x[120] + x[121] + x[122] + x[123] + x[124]
   + x[125]
Subject To
 clq1: x[77] + x[84] + x[97] + x[110] <= 1
 clq2: x[42] + x[84] + x[122] <= 1
 clq3: x[37] + x[62] + x[66] <= 1
 clq4: x[35] + x[51] + x[63] <= 1
 clq5: x[69] + x[77] + x[96] <= 1
 clq6: x[9] + x[49] + x[84] <= 1
 clq7: x[91] + x[93] <= 1
 clq8: x[24] + x[45] + x[62] <= 1
 clq9: x[9] + x[91] + x[96] <= 1
 clq10: x[17] + x[51] + x[122] <= 1
 clq11: x[17] + x[52] + x[58] + x[61] <= 1
 clq12: x[65] + x[69] + x[103] <= 1
 clq13: x[53] + x[84] <= 1
 clq14: x[110] + x[115] + x[118] <= 1
 clq15: x[2] + x[32] + x[105] <= 1
 clq16: x[16] + x[35] + x[41] <= 1
 clq17: x[54] + x[55] + x[62] <= 1
 clq18: x[51] + x[82] + x[106] <= 1
 clq19: x[24] + x[63] + x[84] <= 1
 clq20: x[68] + x[80] + x[91] <= 1
 clq21: x[93] + x[115] <= 1
 clq22: x[9] + x[14] + x[66] <= 1
 clq23: x[27] + x[98] <= 1
 clq24: x[42] + x[64] + x[106] <= 1
 clq25: x[47] + x[103] + x[115] <= 1
 clq26: x[69] + x[97] <= 1
 clq27: x[11] + x[77] + x[106] <= 1
 clq28: x[83] + x[93] + x[123] <= 1
 clq29: x[76] + x[110] <= 1
 clq30: x[122] + x[124] <= 1
 clq31: x[6] + x[67] + x[69] <= 1
 clq32: x[22] + x[50] + x[91] <= 1
 clq33: x[27] + x[92] <= 1
 clq34: x[32] + x[98] <= 1
 clq35: x[5] + x[35] <= 1
 clq36: x[49] + x[78] + x[110] <= 1
 clq37: x[52] + x[92] <= 1
 clq38: x[58] + x[82] <= 1
 clq39: x[8] + x[62] <= 1
 clq40: x[28] + x[66] + x[74] <= 1
 clq41: x[13] + x[84] + x[116] <= 1
 clq42: x[47] + x[105] + x[124] <= 1
 clq43: x[114] + x[119] <= 1
 clq44: x[44] + x[53] + x[122] <= 1
 clq45: x[14] + x[76] + x[80] <= 1
 clq46: x[16] + x[98] + x[114] <= 1
 clq47: x[12] + x[35] <= 1
 clq48: x[27] + x[99] + x[120] <= 1
 clq49: x[32] + x[62] <= 1
 clq50: x[42] + x[51] + x[108] <= 1
 clq51: x[12] + x[52] <= 1
 clq52: x[3] + x[35] + x[56] <= 1
 clq53: x[57] + x[64] <= 1
 clq54: x[55] + x[58] + x[97] <= 1
 clq55: x[4] + x[72] + x[113] <= 1
 clq56: x[5] + x[77] <= 1
 clq57: x[6] + x[82] <= 1
 clq58: x[88] + x[105] <= 1
 clq59: x[74] + x[79] + x[89] <= 1
 clq60: x[48] + x[93] <= 1
 clq61: x[40] + x[71] + x[119] <= 1
 clq62: x[8] + x[103] <= 1
 clq63: x[11] + x[88] <= 1
 clq64: x[10] + x[25] + x[46] <= 1
 clq65: x[17] + x[84] + x[102] <= 1
 clq66: x[22] + x[37] + x[82] <= 1
 clq67: x[24] + x[50] + x[73] <= 1
 clq68: x[32] + x[34] + x[70] <= 1
 clq69: x[36] + x[46] + x[91] <= 1
 clq70: x[49] + x[52] <= 1
 clq71: x[8] + x[57] <= 1
 clq72: x[53] + x[62] + x[111] <= 1
 clq73: x[29] + x[63] + x[69] <= 1
 clq74: x[58] + x[64] + x[77] <= 1
 clq75: x[83] + x[98] <= 1
 clq76: x[92] + x[115] <= 1
 clq77: x[93] + x[118] + x[121] <= 1
 clq78: x[41] + x[89] + x[110] <= 1
 clq79: x[66] + x[108] + x[122] <= 1
 clq80: x[5] + x[65] <= 1
 clq81: x[6] + x[38] + x[56] <= 1
 clq82: x[9] + x[52] + x[111] <= 1
 clq83: x[11] + x[32] + x[103] <= 1
 clq84: x[13] + x[99] <= 1
 clq85: x[14] + x[86] <= 1
 clq86: x[16] + x[104] + x[105] <= 1
 clq87: x[12] + x[72] + x[73] <= 1
 clq88: x[8] + x[19] + x[42] <= 1
 clq89: x[27] + x[51] <= 1
 clq90: x[31] + x[115] <= 1
 clq91: x[26] + x[116] <= 1
 clq92: x[36] + x[47] + x[61] <= 1
 clq93: x[48] + x[65] <= 1
 clq94: x[49] + x[107] <= 1
 clq95: x[57] + x[59] <= 1
 clq96: x[76] + x[83] + x[104] <= 1
 clq97: x[80] + x[97] <= 1
 clq98: x[40] + x[85] <= 1
 clq99: x[3] + x[38] + x[88] <= 1
 clq100: x[5] + x[92] <= 1
 clq101: x[17] + x[38] + x[94] <= 1
 clq102: x[1] + x[53] + x[113] <= 1
 clq103: x[117] + x[119] <= 1
 clq104: x[110] + x[124] <= 1
 clq105: x[13] + x[101] <= 1
 clq106: x[14] + x[57] <= 1
 clq107: x[15] + x[35] <= 1
 clq108: x[10] + x[31] + x[67] <= 1
 clq109: x[22] + x[85] <= 1
 clq110: x[24] + x[48] <= 1
 clq111: x[27] + x[70] + x[106] <= 1
 clq112: x[26] + x[82] + x[117] <= 1
 clq113: x[49] + x[98] <= 1
 clq114: x[50] + x[55] <= 1
 clq115: x[51] + x[107] <= 1
 clq116: x[59] + x[69] <= 1
 clq117: x[62] + x[92] <= 1
 clq118: x[63] + x[123] <= 1
 clq119: x[64] + x[115] <= 1
 clq120: x[74] + x[107] <= 1
 clq121: x[37] + x[77] <= 1
 clq122: x[78] + x[112] <= 1
 clq123: x[80] + x[114] <= 1
 clq124: x[5] + x[84] <= 1
 clq125: x[22] + x[68] + x[86] <= 1
 clq126: x[72] + x[78] + x[91] <= 1
 clq127: x[93] + x[97] <= 1
 clq128: x[11] + x[96] + x[122] <= 1
 clq129: x[49] + x[99] + x[125] <= 1
 clq130: x[68] + x[116] + x[119] <= 1
 clq131: x[52] + x[118] <= 1
 clq132: x[20] + x[102] + x[124] <= 1
 clq133: x[6] + x[123] <= 1
 clq134: x[9] + x[100] <= 1
 clq135: x[13] + x[14] <= 1
 clq136: x[7] + x[98] <= 1
 clq137: x[15] + x[66] <= 1
 clq138: x[16] + x[12] <= 1
 clq139: x[18] + x[66] + x[75] <= 1
 clq140: x[19] + x[48] <= 1
 clq141: x[23] + x[71] + x[113] <= 1
 clq142: x[24] + x[35] + x[76] <= 1
 clq143: x[28] + x[81] <= 1
 clq144: x[30] + x[47] <= 1
 clq145: x[40] + x[92] <= 1
 clq146: x[41] + x[80] <= 1
 clq147: x[42] + x[88] + x[107] <= 1
 clq148: x[43] + x[49] + x[55] <= 1
 clq149: x[45] + x[83] <= 1
 clq150: x[23] + x[50] + x[110] <= 1
 clq151: x[51] + x[114] <= 1
 clq152: x[56] + x[105] <= 1
 clq153: x[57] + x[84] <= 1
 clq154: x[8] + x[58] + x[65] <= 1
 clq155: x[59] + x[103] <= 1
 clq156: x[9] + x[61] + x[77] <= 1
 clq157: x[62] + x[89] <= 1
 clq158: x[33] + x[63] + x[124] <= 1
 clq159: x[64] + x[108] + x[119] <= 1
 clq160: x[4] + x[69] + x[99] <= 1
 clq161: x[39] + x[74] <= 1
 clq162: x[85] + x[100] <= 1
 clq163: x[44] + x[90] + x[97] <= 1
 clq164: x[93] + x[106] <= 1
 clq165: x[81] + x[94] <= 1
 clq166: x[101] + x[122] <= 1
 clq167: x[3] + x[112] <= 1
 clq168: x[114] + x[115] <= 1
 clq169: x[5] + x[118] <= 1
 clq170: x[1] + x[79] <= 1
 clq171: x[6] + x[2] + x[27] <= 1
 clq172: x[13] + x[37] <= 1
 clq173: x[14] + x[7] <= 1
 clq174: x[15] + x[116] <= 1
 clq175: x[16] + x[10] + x[62] <= 1
 clq176: x[12] + x[34] + x[103] <= 1
 clq177: x[17] + x[98] <= 1
 clq178: x[19] + x[28] <= 1
 clq179: x[21] + x[74] + x[92] <= 1
 clq180: x[25] + x[111] <= 1
 clq181: x[30] + x[57] <= 1
 clq182: x[31] + x[91] <= 1
 clq183: x[32] + x[101] <= 1
 clq184: x[36] + x[65] <= 1
 clq185: x[26] + x[46] <= 1
 clq186: x[40] + x[82] <= 1
 clq187: x[7] + x[41] + x[51] <= 1
 clq188: x[45] + x[67] <= 1
 clq189: x[47] + x[120] <= 1
 clq190: x[48] + x[51] + x[73] <= 1
 clq191: x[52] + x[80] <= 1
 clq192: x[54] + x[112] <= 1
 clq193: x[56] + x[84] <= 1
 clq194: x[59] + x[93] <= 1
 clq195: x[83] + x[105] <= 1
 clq196: x[85] + x[125] <= 1
 clq197: x[86] + x[102] <= 1
 clq198: x[71] + x[87] <= 1
 clq199: x[89] + x[115] <= 1
 clq200: x[70] + x[90] + x[94] <= 1
 clq201: x[35] + x[96] + x[117] <= 1
 clq202: x[29] + x[54] + x[118] <= 1
 clq203: x[1] + x[123] <= 1
 clq204: x[5] + x[13] <= 1
 clq205: x[11] + x[67] <= 1
 clq206: x[14] + x[100] <= 1
 clq207: x[15] + x[69] <= 1
 clq208: x[17] + x[112] + x[113] <= 1
 clq209: x[18] + x[114] <= 1
 clq210: x[19] + x[98] <= 1
 clq211: x[22] + x[120] <= 1
 clq212: x[24] + x[88] + x[91] <= 1
 clq213: x[25] + x[3] <= 1
 clq214: x[28] + x[52] <= 1
 clq215: x[30] + x[76] <= 1
 clq216: x[31] + x[85] <= 1
 clq217: x[32] + x[50] <= 1
 clq218: x[36] + x[57] <= 1
 clq219: x[37] + x[40] <= 1
 clq220: x[39] + x[26] + x[72] <= 1
 clq221: x[42] + x[59] <= 1
 clq222: x[43] + x[78] <= 1
 clq223: x[45] + x[89] + x[122] <= 1
 clq224: x[46] + x[106] <= 1
 clq225: x[47] + x[67] <= 1
 clq226: x[53] + x[115] <= 1
 clq227: x[55] + x[77] <= 1
 clq228: x[56] + x[60] <= 1
 clq229: x[58] + x[101] <= 1
 clq230: x[61] + x[111] <= 1
 clq231: x[3] + x[63] <= 1
 clq232: x[64] + x[121] <= 1
 clq233: x[65] + x[75] <= 1
 clq234: x[2] + x[79] <= 1
 clq235: x[80] + x[105] + x[125] <= 1
 clq236: x[81] + x[123] <= 1
 clq237: x[81] + x[82] + x[86] <= 1
 clq238: x[69] + x[83] <= 1
 clq239: x[84] + x[95] <= 1
 clq240: x[10] + x[87] <= 1
 clq241: x[33] + x[93] <= 1
 clq242: x[97] + x[101] <= 1
 clq243: x[71] + x[110] <= 1
 clq244: x[116] + x[123] <= 1
 clq245: x[5] + x[1] <= 1
 clq246: x[6] + x[9] <= 1
 clq247: x[8] + x[110] <= 1
 clq248: x[11] + x[19] <= 1
 clq249: x[13] + x[46] <= 1
 clq250: x[14] + x[103] <= 1
 clq251: x[15] + x[55] <= 1
 clq252: x[16] + x[106] <= 1
 clq253: x[12] + x[100] <= 1
 clq254: x[18] + x[84] <= 1
 clq255: x[21] + x[65] <= 1
 clq256: x[22] + x[41] <= 1
 clq257: x[25] + x[74] <= 1
 clq258: x[27] + x[36] + x[103] <= 1
 clq259: x[28] + x[30] + x[53] <= 1
 clq260: x[31] + x[119] <= 1
 clq261: x[32] + x[76] <= 1
 clq262: x[20] + x[97] <= 1
 clq263: x[37] + x[59] <= 1
 clq264: x[40] + x[111] <= 1
 clq265: x[42] + x[102] <= 1
 clq266: x[43] + x[57] <= 1
 clq267: x[44] + x[56] <= 1
 clq268: x[47] + x[99] <= 1
 clq269: x[48] + x[52] <= 1
 clq270: x[50] + x[83] <= 1
 clq271: x[58] + x[108] <= 1
 clq272: x[60] + x[77] + x[95] <= 1
 clq273: x[61] + x[93] <= 1
 clq274: x[62] + x[75] <= 1
 clq275: x[38] + x[63] <= 1
 clq276: x[64] + x[66] <= 1
 clq277: x[73] + x[92] <= 1
 clq278: x[78] + x[115] <= 1
 clq279: x[79] + x[85] <= 1
 clq280: x[72] + x[87] <= 1
 clq281: x[94] + x[114] <= 1
 clq282: x[96] + x[97] <= 1
 clq283: x[71] + x[98] <= 1
 clq284: x[102] + x[104] <= 1
 clq285: x[107] + x[116] <= 1
 clq286: x[109] + x[118] <= 1
 clq287: x[117] + x[124] <= 1
 clq288: x[1] + x[44] + x[120] <= 1
 clq289: x[33] + x[121] <= 1
 clq290: x[5] + x[121] <= 1
 clq291: x[6] + x[42] <= 1
 clq292: x[2] + x[17] <= 1
 clq293: x[8] + x[4] + x[105] <= 1
 clq294: x[9] + x[73] <= 1
 clq295: x[11] + x[63] <= 1
 clq296: x[13] + x[83] <= 1
 clq297: x[14] + x[87] <= 1
 clq298: x[7] + x[21] <= 1
 clq299: x[15] + x[92] <= 1
 clq300: x[16] + x[59] <= 1
 clq301: x[10] + x[118] <= 1
 clq302: x[12] + x[18] <= 1
 clq303: x[19] + x[113] <= 1
 clq304: x[22] + x[90] <= 1
 clq305: x[23] + x[98] <= 1
 clq306: x[24] + x[29] <= 1
 clq307: x[25] + x[69] <= 1
 clq308: x[3] + x[41] <= 1
 clq309: x[31] + x[74] <= 1
 clq310: x[32] + x[85] <= 1
 clq311: x[35] + x[43] + x[68] <= 1
 clq312: x[20] + x[47] <= 1
 clq313: x[37] + x[49] <= 1
 clq314: x[39] + x[79] <= 1
 clq315: x[26] + x[57] <= 1
 clq316: x[40] + x[72] + x[124] <= 1
 clq317: x[45] + x[107] <= 1
 clq318: x[46] + x[111] <= 1
 clq319: x[48] + x[100] <= 1
 clq320: x[50] + x[117] <= 1
 clq321: x[52] + x[121] <= 1
 clq322: x[54] + x[97] <= 1
 clq323: x[55] + x[119] <= 1
 clq324: x[56] + x[99] <= 1
 clq325: x[58] + x[112] <= 1
 clq326: x[61] + x[96] <= 1
 clq327: x[62] + x[125] <= 1
 clq328: x[64] + x[91] <= 1
 clq329: x[66] + x[101] <= 1
 clq330: x[67] + x[116] <= 1
 clq331: x[70] + x[93] <= 1
 clq332: x[6] + x[75] + x[109] <= 1
 clq333: x[76] + x[94] <= 1
 clq334: x[78] + x[82] <= 1
 clq335: x[80] + x[106] <= 1
 clq336: x[84] + x[89] <= 1
 clq337: x[33] + x[86] <= 1
 clq338: x[88] + x[123] <= 1
 clq339: x[104] + x[122] <= 1
 clq340: x[108] + x[110] <= 1
 clq341: x[49] + x[114] <= 1
 clq342: x[3] + x[115] <= 1
 clq343: x[5] + x[82] <= 1
 clq344: x[2] + x[11] <= 1
 clq345: x[9] + x[28] <= 1
 clq346: x[13] + x[119] <= 1
 clq347: x[14] + x[52] <= 1
 clq348: x[7] + x[73] <= 1
 clq349: x[15] + x[93] <= 1
 clq350: x[16] + x[45] <= 1
 clq351: x[10] + x[81] <= 1
 clq352: x[12] + x[42] <= 1
 clq353: x[17] + x[99] <= 1
 clq354: x[18] + x[90] <= 1
 clq355: x[19] + x[66] <= 1
 clq356: x[21] + x[84] <= 1
 clq357: x[22] + x[67] <= 1
 clq358: x[23] + x[115] <= 1
 clq359: x[24] + x[120] <= 1
 clq360: x[25] + x[55] <= 1
 clq361: x[27] + x[116] <= 1
 clq362: x[29] + x[64] <= 1
 clq363: x[30] + x[63] <= 1
 clq364: x[31] + x[61] <= 1
 clq365: x[32] + x[86] <= 1
 clq366: x[36] + x[20] <= 1
 clq367: x[37] + x[65] <= 1
 clq368: x[38] + x[116] <= 1
 clq369: x[39] + x[94] <= 1
 clq370: x[26] + x[88] <= 1
 clq371: x[41] + x[50] <= 1
 clq372: x[12] + x[46] + x[47] <= 1
 clq373: x[48] + x[54] <= 1
 clq374: x[51] + x[89] <= 1
 clq375: x[53] + x[91] <= 1
 clq376: x[56] + x[118] <= 1
 clq377: x[57] + x[60] <= 1
 clq378: x[58] + x[100] <= 1
 clq379: x[59] + x[74] <= 1
 clq380: x[62] + x[90] <= 1
 clq381: x[69] + x[78] <= 1
 clq382: x[28] + x[70] <= 1
 clq383: x[11] + x[71] <= 1
 clq384: x[76] + x[87] <= 1
 clq385: x[77] + x[107] <= 1
 clq386: x[79] + x[111] <= 1
 clq387: x[80] + x[117] <= 1
 clq388: x[83] + x[114] <= 1
 clq389: x[85] + x[104] <= 1
 clq390: x[92] + x[123] <= 1
 clq391: x[92] + x[95] <= 1
 clq392: x[96] + x[113] <= 1
 clq393: x[89] + x[98] <= 1
 clq394: x[9] + x[101] <= 1
 clq395: x[66] + x[102] <= 1
 clq396: x[25] + x[106] <= 1
 clq397: x[41] + x[108] <= 1
 clq398: x[60] + x[110] + x[125] <= 1
 clq399: x[32] + x[112] <= 1
 clq400: x[59] + x[122] <= 1
 clq401: x[5] + x[19] <= 1
 clq402: x[1] + x[29] <= 1
 clq403: x[2] + x[40] <= 1
 clq404: x[8] + x[21] <= 1
 clq405: x[4] + x[38] <= 1
 clq406: x[13] + x[23] <= 1
 clq407: x[14] + x[61] <= 1
 clq408: x[7] + x[42] <= 1
 clq409: x[15] + x[30] <= 1
 clq410: x[16] + x[78] <= 1
 clq411: x[10] + x[33] <= 1
 clq412: x[17] + x[22] <= 1
 clq413: x[18] + x[123] <= 1
 clq414: x[24] + x[112] <= 1
 clq415: x[3] + x[62] <= 1
 clq416: x[27] + x[124] <= 1
 clq417: x[31] + x[70] <= 1
 clq418: x[34] + x[44] <= 1
 clq419: x[35] + x[67] <= 1
 clq420: x[36] + x[102] <= 1
 clq421: x[20] + x[81] <= 1
 clq422: x[37] + x[88] <= 1
 clq423: x[39] + x[105] <= 1
 clq424: x[26] + x[65] <= 1
 clq425: x[33] + x[43] <= 1
 clq426: x[45] + x[93] <= 1
 clq427: x[48] + x[86] <= 1
 clq428: x[49] + x[58] <= 1
 clq429: x[50] + x[57] <= 1
 clq430: x[51] + x[117] <= 1
 clq431: x[52] + x[63] <= 1
 clq432: x[53] + x[68] <= 1
 clq433: x[54] + x[83] <= 1
 clq434: x[55] + x[64] <= 1
 clq435: x[56] + x[71] <= 1
 clq436: x[69] + x[109] <= 1
 clq437: x[73] + x[97] <= 1
 clq438: x[74] + x[82] <= 1
 clq439: x[75] + x[98] <= 1
 clq440: x[76] + x[99] <= 1
 clq441: x[77] + x[101] <= 1
 clq442: x[69] + x[79] <= 1
 clq443: x[1] + x[80] <= 1
 clq444: x[84] + x[101] <= 1
 clq445: x[65] + x[85] <= 1
 clq446: x[44] + x[87] <= 1
 clq447: x[91] + x[120] <= 1
 clq448: x[94] + x[95] <= 1
 clq449: x[75] + x[96] <= 1
 clq450: x[100] + x[106] <= 1
 clq451: x[103] + x[117] <= 1
 clq452: x[49] + x[104] <= 1
 clq453: x[107] + x[122] <= 1
 clq454: x[108] + x[113] <= 1
 clq455: x[98] + x[111] <= 1
 clq456: x[57] + x[114] <= 1
 clq457: x[100] + x[115] <= 1
 clq458: x[118] + x[119] <= 1
 clq459: x[113] + x[121] <= 1
 clq460: x[5] + x[30] <= 1
 clq461: x[6] + x[120] <= 1
 clq462: x[2] + x[46] <= 1
 clq463: x[8] + x[15] <= 1
 clq464: x[4] + x[9] <= 1
 clq465: x[11] + x[121] <= 1
 clq466: x[13] + x[96] <= 1
 clq467: x[14] + x[79] <= 1
 clq468: x[7] + x[77] <= 1
 clq469: x[16] + x[87] <= 1
 clq470: x[10] + x[110] <= 1
 clq471: x[17] + x[28] <= 1
 clq472: x[18] + x[32] <= 1
 clq473: x[19] + x[114] <= 1
 clq474: x[21] + x[24] <= 1
 clq475: x[22] + x[54] <= 1
 clq476: x[23] + x[123] <= 1
 clq477: x[25] + x[42] <= 1
 clq478: x[3] + x[116] <= 1
 clq479: x[27] + x[31] <= 1
 clq480: x[29] + x[43] <= 1
 clq481: x[34] + x[125] <= 1
 clq482: x[35] + x[36] <= 1
 clq483: x[20] + x[85] <= 1
 clq484: x[37] + x[67] <= 1
 clq485: x[38] + x[103] <= 1
 clq486: x[39] + x[63] <= 1
 clq487: x[26] + x[93] <= 1
 clq488: x[40] + x[76] <= 1
 clq489: x[41] + x[122] <= 1
 clq490: x[45] + x[64] <= 1
 clq491: x[47] + x[50] <= 1
 clq492: x[48] + x[111] <= 1
 clq493: x[51] + x[59] <= 1
 clq494: x[52] + x[102] <= 1
 clq495: x[53] + x[90] <= 1
 clq496: x[55] + x[124] <= 1
 clq497: x[56] + x[62] <= 1
 clq498: x[58] + x[119] <= 1
 clq499: x[61] + x[95] <= 1
 clq500: x[66] + x[112] <= 1
 clq501: x[68] + x[97] <= 1
 clq502: x[70] + x[118] <= 1
 clq503: x[71] + x[94] <= 1
 clq504: x[72] + x[107] <= 1
 clq505: x[73] + x[105] <= 1
 clq506: x[74] + x[104] <= 1
 clq507: x[78] + x[84] <= 1
 clq508: x[80] + x[82] <= 1
 clq509: x[81] + x[91] <= 1
 clq510: x[83] + x[108] <= 1
 clq511: x[86] + x[92] <= 1
 clq512: x[88] + x[106] <= 1
 clq513: x[89] + x[99] <= 1
 clq514: x[109] + x[115] <= 1
Bounds
Binaries
 x[5] x[1] x[6] x[2] x[8] x[4] x[9] x[11] x[13] x[14] x[7] x[15] x[16]
 x[10] x[12] x[17] x[18] x[19] x[21] x[22] x[23] x[24] x[25] x[3] x[27]
 x[28] x[29] x[30] x[31] x[32] x[33] x[34] x[35] x[36] x[20] x[37] x[38]
 x[39] x[26] x[40] x[41] x[42] x[43] x[44] x[45] x[46] x[47] x[48] x[49]
 x[50] x[51] x[52] x[53] x[54] x[55] x[56] x[57] x[58] x[59] x[60] x[61]
 x[62] x[63] x[64] x[65] x[66] x[67] x[68] x[69] x[70] x[71] x[72] x[73]
 x[74] x[75] x[76] x[77] x[78] x[79] x[80] x[81] x[82] x[83] x[84] x[85]
 x[86] x[87] x[88] x[89] x[90] x[91] x[92] x[93] x[94] x[95] x[96] x[97]
 x[98] x[99] x[100] x[101] x[102] x[103] x[104] x[105] x[106] x[107] x[108]
 x[109] x[110] x[111] x[112] x[113] x[114] x[115] x[116] x[117] x[118]
 x[119] x[120] x[121] x[122] x[123] x[124] x[125]
End
